data/solutions/recovery/wellformed/intermediate/binding/wellformed_intermediate_instance41/25.sol
Elapsed time: 100.34
Upper bound: 263132.0
Planning weighted value: 1022684380.0
C[0]=263132.0
C[1]=263122.0
C[2]=263120.0
C[3]=263109.0
C[4]=263107.0
C[5]=263077.0
C[6]=263038.0
C[7]=263028.0
C[8]=262990.0
C[9]=262832.0
C[10]=262814.0
C[11]=0.0
y[0]=8
y[1]=5
y[2]=6
y[3]=10
y[4]=4
y[5]=1
y[6]=7
y[7]=7
y[8]=7
y[9]=0
y[10]=7
y[11]=7
y[12]=4
y[13]=2
y[14]=10
y[15]=5
y[16]=6
y[17]=3
y[18]=6
y[19]=4
y[20]=0
y[21]=5
y[22]=3
y[23]=5
y[24]=5
y[25]=0
y[26]=3
y[27]=0
y[28]=3
y[29]=0
y[30]=3
y[31]=6
y[32]=4
y[33]=8
y[34]=7
y[35]=0
y[36]=6
y[37]=8
y[38]=9
y[39]=6
y[40]=1
y[41]=8
y[42]=4
y[43]=10
y[44]=4
y[45]=8
y[46]=0
y[47]=1
y[48]=8
y[49]=8
y[50]=1
y[51]=9
y[52]=5
y[53]=6
y[54]=5
y[55]=0
y[56]=6
y[57]=5
y[58]=2
y[59]=10
y[60]=10
y[61]=1
y[62]=4
y[63]=3
y[64]=4
y[65]=1
y[66]=1
y[67]=10
y[68]=4
y[69]=1
y[70]=8
y[71]=6
y[72]=10
y[73]=9
y[74]=1
y[75]=4
y[76]=9
y[77]=2
y[78]=1
y[79]=5
y[80]=3
y[81]=0
y[82]=6
y[83]=3
y[84]=9
y[85]=4
y[86]=5
y[87]=6
y[88]=4
y[89]=9
y[90]=4
y[91]=4
y[92]=7
y[93]=9
y[94]=2
y[95]=7
y[96]=7
y[97]=6
y[98]=0
y[99]=7
y[100]=3
y[101]=5
y[102]=10
y[103]=0
y[104]=1
y[105]=4
y[106]=4
y[107]=6
y[108]=3
y[109]=6
y[110]=1
y[111]=6
y[112]=2
y[113]=2
y[114]=4
y[115]=3
y[116]=4
y[117]=10
y[118]=2
y[119]=0
y[120]=7
y[121]=5
y[122]=7
y[123]=2
y[124]=9
y[125]=7
y[126]=3
y[127]=0
y[128]=4
y[129]=9
y[130]=0
y[131]=2
y[132]=10
y[133]=2
y[134]=1
y[135]=3
y[136]=9
y[137]=10
y[138]=6
y[139]=3
y[140]=1
y[141]=5
y[142]=3
y[143]=9
y[144]=0
y[145]=2
y[146]=7
y[147]=6
y[148]=6
y[149]=9
y[150]=3
y[151]=2
y[152]=1
y[153]=10
y[154]=8
y[155]=3
y[156]=9
y[157]=4
y[158]=7
y[159]=3
y[160]=1
y[161]=9
y[162]=1
y[163]=10
y[164]=8
y[165]=9
y[166]=5
y[167]=8
y[168]=7
y[169]=9
y[170]=8
y[171]=7
y[172]=7
y[173]=9
y[174]=5
y[175]=5
y[176]=10
y[177]=2
y[178]=0
y[179]=9
y[180]=3
y[181]=8
y[182]=8
y[183]=9
y[184]=6
y[185]=9
y[186]=9
y[187]=4
y[188]=8
y[189]=5
y[190]=4
y[191]=1
y[192]=8
y[193]=5
y[194]=6
y[195]=4
y[196]=9
y[197]=7
y[198]=9
y[199]=7
y[200]=4
y[201]=7
y[202]=5
y[203]=5
y[204]=8
y[205]=9
y[206]=3
y[207]=5
y[208]=10
y[209]=6
y[210]=7
y[211]=8
y[212]=3
y[213]=5
y[214]=7
y[215]=3
y[216]=1
y[217]=4
y[218]=5
y[219]=5
y[220]=4
y[221]=0
y[222]=5
y[223]=0
y[224]=10
y[225]=5
y[226]=7
y[227]=0
y[228]=3
y[229]=6
y[230]=9
y[231]=4
y[232]=1
y[233]=6
y[234]=6
y[235]=3
y[236]=9
y[237]=6
y[238]=0
y[239]=9
y[240]=2
y[241]=7
y[242]=9
y[243]=10
y[244]=3
y[245]=7
y[246]=4
y[247]=2
y[248]=2
y[249]=2
y[250]=7
y[251]=5
y[252]=7
y[253]=1
y[254]=1
y[255]=4
y[256]=0
y[257]=1
y[258]=9
y[259]=7
y[260]=3
y[261]=7
y[262]=1
y[263]=8
y[264]=9
y[265]=1
y[266]=5
y[267]=10
y[268]=10
y[269]=3
y[270]=2
y[271]=8
y[272]=9
y[273]=10
y[274]=2
y[275]=8
y[276]=6
y[277]=7
y[278]=8
y[279]=2
y[280]=10
y[281]=7
y[282]=0
y[283]=1
y[284]=4
y[285]=3
y[286]=0
y[287]=5
y[288]=8
y[289]=4
y[290]=10
y[291]=1
y[292]=7
y[293]=0
y[294]=5
y[295]=4
y[296]=2
y[297]=3
y[298]=8
y[299]=10
y[300]=3
y[301]=0
y[302]=4
y[303]=8
y[304]=2
y[305]=5
y[306]=10
y[307]=8
y[308]=2
y[309]=5
y[310]=5
y[311]=0
