data/solutions/recovery/wellformed/intermediate/binding/wellformed_intermediate_instance41/25.log

Log started (V12.6.3.0) Fri Apr 20 18:36:00 2018

New value for default parallel thread count: 1

Problem '/tmp/tmpLFjlOH.pyomo.lp' read.
Read time = 0.14 sec. (12.92 ticks)

Problem name         : /tmp/tmpLFjlOH.pyomo.lp
Objective sense      : Minimize
Variables            :    3758  [Nneg: 1,  Binary: 3744,  General Integer: 13]
Objective nonzeros   :       1
Linear constraints   :     650  [Less: 324,  Equal: 326]
  Nonzeros           :  958261
  RHS nonzeros       :     313

Variables            : Min LB: 0.000000         Max UB: 1.000000       
Objective nonzeros   : Min   : 1.000000         Max   : 1.000000       
Linear constraints   :
  Nonzeros           : Min   : 1.000000         Max   : 19298.00       
  RHS nonzeros       : Min   : 1.000000         Max   : 1.000000       
Tried aggregator 2 times.
MIP Presolve eliminated 594 rows and 3372 columns.
Aggregator did 11 substitutions.
Reduced MIP has 45 rows, 375 columns, and 759 nonzeros.
Reduced MIP has 374 binaries, 1 generals, 0 SOSs, and 0 indicators.
Presolve time = 0.04 sec. (57.15 ticks)
Found incumbent of value 626539.000000 after 0.08 sec. (79.42 ticks)
Probing time = 0.00 sec. (0.42 ticks)
Tried aggregator 1 time.
Reduced MIP has 45 rows, 375 columns, and 759 nonzeros.
Reduced MIP has 374 binaries, 1 generals, 0 SOSs, and 0 indicators.
Presolve time = 0.00 sec. (0.63 ticks)
Probing time = 0.00 sec. (0.42 ticks)
Clique table members: 34.
MIP emphasis: balance optimality and feasibility.
MIP search method: dynamic search.
Parallel mode: none, using 1 thread.
Root relaxation solution time = 0.00 sec. (0.72 ticks)

        Nodes                                         Cuts/
   Node  Left     Objective  IInf  Best Integer    Best Bound    ItCnt     Gap

*     0+    0                       626539.0000   243070.0000            61.20%
      0     0   263033.5455    19   626539.0000   263033.5455       72   58.02%
*     0+    0                       279532.0000   263033.5455             5.90%
      0     0   263034.0000    21   279532.0000      Fract: 6       91    5.90%
*     0+    0                       269483.0000   263034.0000             2.39%
      0     0   263034.0000    25   269483.0000      Cuts: 20      128    2.39%
*     0+    0                       269270.0000   263034.0000             2.32%
*     0+    0                       267733.0000   263034.0000             1.76%
*     0+    0                       266092.0000   263034.0000             1.15%
*     0+    0                       264883.0000   263034.0000             0.70%
*     0+    0                       264853.0000   263034.0000             0.69%
      0     2   263034.0000    18   264853.0000   263034.0000      128    0.69%
Elapsed time = 0.10 sec. (100.45 ticks, tree = 0.01 MB, solutions = 8)
*    20+   20                       264811.0000   263034.0000             0.67%
*    30+   30                       264692.0000   263034.0000             0.63%
*    30+   30                       264321.0000   263034.0000             0.49%
*   130+  123                       264073.0000   263034.0000             0.39%
*   499+  425                       263904.0000   263034.0000             0.33%
*   500+  424                       263809.0000   263034.0000             0.29%
*   500+  415                       263579.0000   263034.0000             0.21%
*   502+  277                       263560.0000   263034.0000             0.20%
    602   301   263100.0000    13   263560.0000   263034.0000     2817    0.20%
    603   301   263100.0000    13   263560.0000   263034.0000     2817    0.20%
    604   301   263100.0000    14   263560.0000   263034.0000     2825    0.20%
    605   301   263100.0000    14   263560.0000   263034.0000     2827    0.20%
    606   301   263497.2000    12   263560.0000   263034.0000     2837    0.20%
    607   301   263100.0000    14   263560.0000   263034.0000     2839    0.20%
    608   301   263100.0000    15   263560.0000   263034.0000     2840    0.20%
    609   302   263279.0000    13   263560.0000   263034.0000     2849    0.20%
    610   302   263279.0000    14   263560.0000   263034.0000     2853    0.20%
*   802+  283                       263523.0000   263034.0000             0.19%
*  1202+  512                       263474.0000   263034.0000             0.17%
   1202   514   263419.0000    15   263474.0000   263034.0000     5123    0.17%
Elapsed time = 1.12 sec. (1213.53 ticks, tree = 0.20 MB, solutions = 18)
  12821 10484   263034.0000    18   263474.0000   263034.0000    36673    0.17%
  12822 10485   263034.0000    19   263474.0000   263034.0000    36676    0.17%
  12823 10486   263042.3000    18   263474.0000   263034.0000    36679    0.17%
  12824 10487   263042.3000    18   263474.0000   263034.0000    36680    0.17%
  12825 10488   263042.3000    18   263474.0000   263034.0000    36681    0.17%
  12826 10489   263042.3000    17   263474.0000   263034.0000    36689    0.17%
  12827 10490   263042.3000    17   263474.0000   263034.0000    36690    0.17%
  12828 10491   263042.3000    17   263474.0000   263034.0000    36691    0.17%
  12829 10492   263042.3000    17   263474.0000   263034.0000    36692    0.17%
  12830 10493   263042.3000    17   263474.0000   263034.0000    36693    0.17%
Elapsed time = 2.03 sec. (2168.63 ticks, tree = 3.99 MB, solutions = 18)
  26279 21201   263278.8000    11   263474.0000   263034.0000    74246    0.17%
  26280 21202   263278.8000    11   263474.0000   263034.0000    74249    0.17%
  26281 21203   263278.8000    11   263474.0000   263034.0000    74250    0.17%
  26282 21203   263278.8000    10   263474.0000   263034.0000    74251    0.17%
  26283 21202        cutoff         263474.0000   263034.0000    74254    0.17%
  26284 21203   263410.3750    13   263474.0000   263034.0000    74258    0.17%
  26285 21204   263449.7143    11   263474.0000   263034.0000    74259    0.17%
  26286 21205   263449.7143    12   263474.0000   263034.0000    74260    0.17%
  26287 21206   263449.7143    12   263474.0000   263034.0000    74262    0.17%
  26288 21207   263449.7143    12   263474.0000   263034.0000    74263    0.17%
Elapsed time = 2.95 sec. (3122.87 ticks, tree = 8.18 MB, solutions = 18)
  36253 28790   263078.0000    15   263474.0000   263034.0000   107361    0.17%
  36254 28791   263078.0000    15   263474.0000   263034.0000   107362    0.17%
  36255 28792   263078.0000    14   263474.0000   263034.0000   107364    0.17%
  36256 28793   263078.0000    15   263474.0000   263034.0000   107372    0.17%
  36257 28794   263078.0000    15   263474.0000   263034.0000   107374    0.17%
  36258 28795   263078.0000    15   263474.0000   263034.0000   107376    0.17%
  36259 28796   263078.0000    15   263474.0000   263034.0000   107378    0.17%
  36260 28797   263078.0000    15   263474.0000   263034.0000   107382    0.17%
  36261 28798   263078.0000    16   263474.0000   263034.0000   107394    0.17%
  36262 28799   263078.0000    17   263474.0000   263034.0000   107395    0.17%
Elapsed time = 3.90 sec. (4077.32 ticks, tree = 10.83 MB, solutions = 18)
  46306 36700   263339.8750    19   263474.0000   263034.0000   142478    0.17%
  46307 36701   263339.8750    18   263474.0000   263034.0000   142479    0.17%
  46308 36702   263339.8750    19   263474.0000   263034.0000   142480    0.17%
  46309 36703   263339.8750    17   263474.0000   263034.0000   142489    0.17%
  46310 36704   263339.8750    19   263474.0000   263034.0000   142491    0.17%
  46311 36703        cutoff         263474.0000   263034.0000   142501    0.17%
  46312 36704   263339.8750    19   263474.0000   263034.0000   142503    0.17%
  46313 36705   263339.8750    17   263474.0000   263034.0000   142505    0.17%
  46314 36706   263339.8750    17   263474.0000   263034.0000   142510    0.17%
  46315 36707   263471.0000    12   263474.0000   263034.0000   142514    0.17%
Elapsed time = 4.84 sec. (5031.64 ticks, tree = 14.49 MB, solutions = 18)
  57562 45780   263042.3000    20   263474.0000   263034.0000   182681    0.17%
  57563 45781   263042.3000    21   263474.0000   263034.0000   182684    0.17%
  57564 45782   263042.3000    21   263474.0000   263034.0000   182686    0.17%
  57565 45783   263042.3000    21   263474.0000   263034.0000   182688    0.17%
  57566 45784   263042.3000    20   263474.0000   263034.0000   182691    0.17%
  57567 45785   263042.3000    20   263474.0000   263034.0000   182695    0.17%
  57568 45786   263042.3000    22   263474.0000   263034.0000   182702    0.17%
  57569 45787   263042.3000    19   263474.0000   263034.0000   182709    0.17%
  57570 45788   263053.5000    14   263474.0000   263034.0000   182716    0.17%
  57571 45789   263053.5000    15   263474.0000   263034.0000   182717    0.17%
Elapsed time = 5.77 sec. (5986.67 ticks, tree = 17.59 MB, solutions = 18)
  67245 53755   263042.3000    22   263474.0000   263034.0000   227802    0.17%
  67246 53756   263042.3000    22   263474.0000   263034.0000   227803    0.17%
  67247 53757   263042.3000    18   263474.0000   263034.0000   227807    0.17%
  67248 53757   263129.1952    22   263474.0000   263034.0000   227812    0.17%
  67249 53758   263135.8750    14   263474.0000   263034.0000   227814    0.17%
  67250 53759   263135.8750    16   263474.0000   263034.0000   227817    0.17%
  67251 53760   263135.8750    15   263474.0000   263034.0000   227822    0.17%
  67252 53761   263135.8750    15   263474.0000   263034.0000   227825    0.17%
  67253 53762   263135.8750    15   263474.0000   263034.0000   227826    0.17%
  67254 53763   263135.8750    15   263474.0000   263034.0000   227827    0.17%
Elapsed time = 6.67 sec. (6941.37 ticks, tree = 20.29 MB, solutions = 18)
  76013 60756   263219.7000    24   263474.0000   263034.0000   268904    0.17%
  76014 60757   263219.7000    26   263474.0000   263034.0000   268910    0.17%
  76015 60758   263219.7000    26   263474.0000   263034.0000   268911    0.17%
  76016 60759   263219.7000    26   263474.0000   263034.0000   268914    0.17%
  76017 60760   263219.7000    25   263474.0000   263034.0000   268921    0.17%
  76018 60761   263219.7000    23   263474.0000   263034.0000   268922    0.17%
  76019 60762   263219.7000    23   263474.0000   263034.0000   268924    0.17%
  76020 60763   263219.7000    23   263474.0000   263034.0000   268929    0.17%
  76021 60764   263219.7000    27   263474.0000   263034.0000   268935    0.17%
  76022 60765   263223.2543    24   263474.0000   263034.0000   268940    0.17%
Elapsed time = 7.59 sec. (7896.11 ticks, tree = 22.70 MB, solutions = 18)
  85296 68457   263240.7778    21   263474.0000   263034.0000   308196    0.17%
  85297 68458   263240.7778    19   263474.0000   263034.0000   308202    0.17%
  85298 68459   263240.7778    19   263474.0000   263034.0000   308203    0.17%
  85299 68460   263240.7778    16   263474.0000   263034.0000   308212    0.17%
  85300 68461   263240.7778    15   263474.0000   263034.0000   308213    0.17%
  85301 68462   263240.7778    16   263474.0000   263034.0000   308214    0.17%
  85302 68463   263240.7778    17   263474.0000   263034.0000   308217    0.17%
  85303 68464   263240.7778    16   263474.0000   263034.0000   308219    0.17%
  85304 68463        cutoff         263474.0000   263034.0000   308220    0.17%
  85305 68464   263473.0000    17   263474.0000   263034.0000   308232    0.17%
Elapsed time = 8.46 sec. (8851.46 ticks, tree = 27.26 MB, solutions = 18)
* 87081 64992      integral     0   263435.0000   263034.0000   317884    0.15%
* 87181+63012                       263422.0000   263034.0000             0.15%
* 92474 66760      integral     0   263420.0000   263034.0000   344733    0.15%
  93871 67861   263120.2222    17   263420.0000   263034.0000   352354    0.15%
  93872 67862   263366.8750    14   263420.0000   263034.0000   352356    0.15%
  93873 67863   263366.8750    16   263420.0000   263034.0000   352358    0.15%
  93874 67864   263366.8750    17   263420.0000   263034.0000   352361    0.15%
  93875 67865   263385.1224    15   263420.0000   263034.0000   352364    0.15%
  93876 67866   263385.1224    16   263420.0000   263034.0000   352367    0.15%
  93877 67867   263385.1224    14   263420.0000   263034.0000   352369    0.15%
  93878 67868   263385.1224    17   263420.0000   263034.0000   352372    0.15%
  93879 67869   263385.1224    14   263420.0000   263034.0000   352375    0.15%
 122550 91116        cutoff         263420.0000   263034.0000   467985    0.15%
Elapsed time = 11.93 sec. (12666.17 ticks, tree = 34.94 MB, solutions = 21)
*138622+88888                       263395.0000   263034.0000             0.14%
*160982+90704                       263337.0000   263034.0000             0.12%
*161082+86277                       263321.0000   263034.0000             0.11%
 161082 86278   263214.6667    15   263321.0000   263034.0000   604948    0.11%
 161083 86277        cutoff         263321.0000   263034.0000   604949    0.11%
 161084 86276    infeasible         263321.0000   263034.0000   604949    0.11%
 161085 86277   263121.1111    22   263321.0000   263034.0000   604963    0.11%
 161086 86278   263121.1111    21   263321.0000   263034.0000   604966    0.11%
 161087 86277        cutoff         263321.0000   263034.0000   604971    0.11%
 161088 86278   263251.1250    18   263321.0000   263034.0000   604975    0.11%
 161089 86279   263251.1250    16   263321.0000   263034.0000   604979    0.11%
 161090 86278        cutoff         263321.0000   263034.0000   604989    0.11%
 161091 86277        cutoff         263321.0000   263034.0000   604992    0.11%
Elapsed time = 15.41 sec. (16510.99 ticks, tree = 33.12 MB, solutions = 24)
*181746 61987      integral     0   263178.0000   263034.0000   689261    0.05%
 191769 68406   263034.0000    17   263178.0000   263034.0000   737364    0.05%
 191770 68407   263043.7778    14   263178.0000   263034.0000   737378    0.05%
 191771 68408   263055.6250    13   263178.0000   263034.0000   737380    0.05%
 191772 68409   263127.6667    10   263178.0000   263034.0000   737387    0.05%
 191773 68408        cutoff         263178.0000   263034.0000   737389    0.05%
 191774 68407        cutoff         263178.0000   263034.0000   737394    0.05%
 191775 68406    infeasible         263178.0000   263034.0000   737394    0.05%
 191776 68407   263043.4444    18   263178.0000   263034.0000   737409    0.05%
 191777 68408   263043.4444    18   263178.0000   263034.0000   737414    0.05%
 191778 68409   263090.0000    11   263178.0000   263034.0000   737422    0.05%
Elapsed time = 18.83 sec. (20329.63 ticks, tree = 26.96 MB, solutions = 25)
 215775 84138   263096.3750    15   263178.0000   263034.0000   860856    0.05%
 215776 84137        cutoff         263178.0000   263034.0000   860858    0.05%
 215777 84136        cutoff         263178.0000   263034.0000   860876    0.05%
 215778 84135    infeasible         263178.0000   263034.0000   860876    0.05%
 215779 84136   263034.0000    18   263178.0000   263034.0000   860898    0.05%
 215780 84137   263034.0000    19   263178.0000   263034.0000   860900    0.05%
 215781 84138   263034.0000    19   263178.0000   263034.0000   860901    0.05%
 215782 84139   263034.0000    18   263178.0000   263034.0000   860903    0.05%
 215783 84140   263034.0000    19   263178.0000   263034.0000   860909    0.05%
 215784 84141   263034.0000    19   263178.0000   263034.0000   860910    0.05%
Elapsed time = 22.32 sec. (24145.31 ticks, tree = 32.44 MB, solutions = 25)
 241901 100792   263034.0000    19   263178.0000   263034.0000   976124    0.05%
 241902 100793   263034.0000    19   263178.0000   263034.0000   976128    0.05%
 241903 100794   263034.0000    17   263178.0000   263034.0000   976135    0.05%
 241904 100795   263034.0000    19   263178.0000   263034.0000   976146    0.05%
 241905 100794        cutoff         263178.0000   263034.0000   976154    0.05%
 241906 100795   263034.0000    18   263178.0000   263034.0000   976157    0.05%
 241907 100796   263043.7778    17   263178.0000   263034.0000   976165    0.05%
 241908 100795        cutoff         263178.0000   263034.0000   976202    0.05%
 241909 100794        cutoff         263178.0000   263034.0000   976209    0.05%
 241910 100795   263132.6250    15   263178.0000   263034.0000   976212    0.05%
Elapsed time = 25.80 sec. (27961.29 ticks, tree = 38.33 MB, solutions = 25)
 270812 119948   263034.0000    22   263178.0000   263034.0000  1113910    0.05%
 270813 119949   263034.0000    19   263178.0000   263034.0000  1113919    0.05%
 270814 119950   263034.0000    24   263178.0000   263034.0000  1113939    0.05%
 270815 119951   263053.2500    19   263178.0000   263034.0000  1113950    0.05%
 270816 119952   263053.2500    17   263178.0000   263034.0000  1113960    0.05%
 270817 119953   263053.2500    17   263178.0000   263034.0000  1113966    0.05%
 270818 119952        cutoff         263178.0000   263034.0000  1113967    0.05%
 270819 119951        cutoff         263178.0000   263034.0000  1113968    0.05%
 270820 119950        cutoff         263178.0000   263034.0000  1113974    0.05%
 270821 119951   263034.0000    24   263178.0000   263034.0000  1114008    0.05%
Elapsed time = 29.24 sec. (31777.20 ticks, tree = 45.08 MB, solutions = 25)
 302009 139821   263129.2857    13   263178.0000   263034.0000  1264888    0.05%
 302010 139820        cutoff         263178.0000   263034.0000  1264889    0.05%
 302011 139819    infeasible         263178.0000   263034.0000  1264889    0.05%
 302012 139818        cutoff         263178.0000   263034.0000  1264904    0.05%
 302013 139819   263083.0000    15   263178.0000   263034.0000  1264916    0.05%
 302014 139820   263083.0000    16   263178.0000   263034.0000  1264918    0.05%
 302015 139821   263083.0000    16   263178.0000   263034.0000  1264919    0.05%
 302016 139822   263094.6250    15   263178.0000   263034.0000  1264922    0.05%
 302017 139823   263094.6250    15   263178.0000   263034.0000  1264926    0.05%
 302018 139824   263115.8571    13   263178.0000   263034.0000  1264929    0.05%
Elapsed time = 32.66 sec. (35592.90 ticks, tree = 53.71 MB, solutions = 25)
 323941 152667   263105.2500    16   263178.0000   263034.0000  1376667    0.05%
 323942 152668   263105.2500    17   263178.0000   263034.0000  1376669    0.05%
 323943 152669   263105.2500    16   263178.0000   263034.0000  1376671    0.05%
 323944 152670   263105.2500    16   263178.0000   263034.0000  1376672    0.05%
 323945 152671   263105.2500    15   263178.0000   263034.0000  1376674    0.05%
 323946 152672   263105.2500    17   263178.0000   263034.0000  1376675    0.05%
 323947 152673   263105.2500    19   263178.0000   263034.0000  1376678    0.05%
 323948 152674   263105.2500    16   263178.0000   263034.0000  1376681    0.05%
 323949 152675   263105.2500    14   263178.0000   263034.0000  1376683    0.05%
 323950 152676   263105.2500    14   263178.0000   263034.0000  1376688    0.05%
Elapsed time = 36.07 sec. (39408.28 ticks, tree = 58.22 MB, solutions = 25)
 347759 167204   263034.0000    17   263178.0000   263034.0000  1502564    0.05%
 347760 167205   263034.0000    17   263178.0000   263034.0000  1502574    0.05%
 347761 167206   263034.0000    18   263178.0000   263034.0000  1502577    0.05%
 347762 167207   263034.0000    18   263178.0000   263034.0000  1502578    0.05%
 347763 167208   263113.0000    14   263178.0000   263034.0000  1502585    0.05%
 347764 167208   263113.0000    17   263178.0000   263034.0000  1502597    0.05%
 347765 167209   263113.0000    16   263178.0000   263034.0000  1502600    0.05%
 347766 167210   263113.0000    16   263178.0000   263034.0000  1502601    0.05%
 347767 167211   263113.0000    16   263178.0000   263034.0000  1502602    0.05%
 347768 167212   263113.0000    16   263178.0000   263034.0000  1502603    0.05%
Elapsed time = 39.49 sec. (43225.48 ticks, tree = 64.54 MB, solutions = 25)
 375623 188889   263034.0000    18   263178.0000   263034.0000  1631352    0.05%
 375624 188890   263034.0000    20   263178.0000   263034.0000  1631357    0.05%
 375625 188891   263034.0000    18   263178.0000   263034.0000  1631368    0.05%
 375626 188892   263034.0000    22   263178.0000   263034.0000  1631382    0.05%
 375627 188893   263034.0000    21   263178.0000   263034.0000  1631386    0.05%
 375628 188894   263034.0000    19   263178.0000   263034.0000  1631399    0.05%
 375629 188895   263034.0000    18   263178.0000   263034.0000  1631410    0.05%
 375630 188896   263034.0000    21   263178.0000   263034.0000  1631422    0.05%
 375631 188897   263034.0000    21   263178.0000   263034.0000  1631432    0.05%
 375632 188898   263034.0000    21   263178.0000   263034.0000  1631436    0.05%
Elapsed time = 43.02 sec. (47041.79 ticks, tree = 73.24 MB, solutions = 25)
 402537 204237   263101.1250    17   263178.0000   263034.0000  1755759    0.05%
 402538 204238   263101.1250    18   263178.0000   263034.0000  1755762    0.05%
 402539 204239   263101.1250    20   263178.0000   263034.0000  1755764    0.05%
 402540 204240   263101.1250    20   263178.0000   263034.0000  1755765    0.05%
 402541 204241   263101.1250    17   263178.0000   263034.0000  1755774    0.05%
 402542 204242   263101.1250    17   263178.0000   263034.0000  1755781    0.05%
 402543 204243   263101.1250    17   263178.0000   263034.0000  1755789    0.05%
 402544 204244   263101.1250    18   263178.0000   263034.0000  1755796    0.05%
 402545 204245   263101.1250    16   263178.0000   263034.0000  1755800    0.05%
 402546 204246   263101.1250    18   263178.0000   263034.0000  1755809    0.05%
Elapsed time = 46.47 sec. (50857.94 ticks, tree = 78.79 MB, solutions = 25)
 426939 220889        cutoff         263178.0000   263034.0000  1896544    0.05%
 426940 220890   263034.0000    21   263178.0000   263034.0000  1896561    0.05%
 426941 220891   263034.0000    18   263178.0000   263034.0000  1896569    0.05%
 426942 220892   263034.0000    21   263178.0000   263034.0000  1896582    0.05%
 426943 220893   263034.0000    20   263178.0000   263034.0000  1896594    0.05%
 426944 220894   263034.0000    22   263178.0000   263034.0000  1896601    0.05%
 426945 220895   263034.0000    17   263178.0000   263034.0000  1896610    0.05%
 426946 220896   263034.0000    22   263178.0000   263034.0000  1896626    0.05%
 426947 220897   263034.0000    19   263178.0000   263034.0000  1896636    0.05%
 426948 220898   263034.0000    23   263178.0000   263034.0000  1896645    0.05%
Elapsed time = 49.86 sec. (54675.13 ticks, tree = 84.67 MB, solutions = 25)
 454527 240431   263034.0000    17   263178.0000   263034.0000  2049648    0.05%
 454528 240432   263034.0000    17   263178.0000   263034.0000  2049659    0.05%
 454529 240433   263037.5556    18   263178.0000   263034.0000  2049668    0.05%
 454530 240434   263037.5556    18   263178.0000   263034.0000  2049669    0.05%
 454531 240435   263037.5556    18   263178.0000   263034.0000  2049672    0.05%
 454532 240436   263037.5556    18   263178.0000   263034.0000  2049677    0.05%
 454533 240437   263037.5556    20   263178.0000   263034.0000  2049682    0.05%
 454534 240438   263037.5556    18   263178.0000   263034.0000  2049685    0.05%
 454535 240439   263037.5556    18   263178.0000   263034.0000  2049686    0.05%
 454536 240440   263037.5556    17   263178.0000   263034.0000  2049687    0.05%
Elapsed time = 53.23 sec. (58490.79 ticks, tree = 93.08 MB, solutions = 25)
 479672 258934   263034.0000    19   263178.0000   263034.0000  2192186    0.05%
 479673 258935   263034.0000    19   263178.0000   263034.0000  2192188    0.05%
 479674 258936   263034.0000    21   263178.0000   263034.0000  2192194    0.05%
 479675 258937   263034.0000    21   263178.0000   263034.0000  2192195    0.05%
 479676 258938   263034.0000    19   263178.0000   263034.0000  2192201    0.05%
 479677 258939   263034.0000    19   263178.0000   263034.0000  2192210    0.05%
 479678 258938        cutoff         263178.0000   263034.0000  2192222    0.05%
 479679 258939   263034.0000    19   263178.0000   263034.0000  2192231    0.05%
 479680 258940   263034.0000    18   263178.0000   263034.0000  2192242    0.05%
 479681 258941   263034.0000    22   263178.0000   263034.0000  2192265    0.05%
Elapsed time = 56.60 sec. (62306.71 ticks, tree = 99.42 MB, solutions = 25)
 505663 277562   263046.2500    14   263178.0000   263034.0000  2341737    0.05%
 505664 277563   263122.0000     9   263178.0000   263034.0000  2341743    0.05%
 505665 277564   263122.0000    11   263178.0000   263034.0000  2341745    0.05%
 505666 277565   263122.0000     9   263178.0000   263034.0000  2341747    0.05%
 505667 277566   263122.0000     8   263178.0000   263034.0000  2341748    0.05%
 505668 277567   263122.0000    15   263178.0000   263034.0000  2341751    0.05%
 505669 277568   263122.0000    13   263178.0000   263034.0000  2341752    0.05%
 505670 277569   263122.0000    13   263178.0000   263034.0000  2341753    0.05%
 505671 277570   263122.0000     9   263178.0000   263034.0000  2341755    0.05%
 505672 277571   263122.0000    11   263178.0000   263034.0000  2341756    0.05%
Elapsed time = 59.95 sec. (66122.46 ticks, tree = 107.74 MB, solutions = 25)
 525802 290359   263121.3750    18   263178.0000   263034.0000  2483077    0.05%
 525803 290360   263121.3750    17   263178.0000   263034.0000  2483079    0.05%
 525804 290361   263121.3750    17   263178.0000   263034.0000  2483080    0.05%
 525805 290362   263121.3750    16   263178.0000   263034.0000  2483084    0.05%
 525806 290361        cutoff         263178.0000   263034.0000  2483100    0.05%
 525807 290360        cutoff         263178.0000   263034.0000  2483102    0.05%
 525808 290359        cutoff         263178.0000   263034.0000  2483106    0.05%
 525809 290358        cutoff         263178.0000   263034.0000  2483109    0.05%
 525810 290359   263034.0000    18   263178.0000   263034.0000  2483116    0.05%
 525811 290358        cutoff         263178.0000   263034.0000  2483124    0.05%
Elapsed time = 63.30 sec. (70001.20 ticks, tree = 112.21 MB, solutions = 25)
 545810 302457   263112.5556    16   263178.0000   263034.0000  2627236    0.05%
 545811 302458   263112.5556    16   263178.0000   263034.0000  2627246    0.05%
 545812 302459   263112.5556    15   263178.0000   263034.0000  2627251    0.05%
 545813 302460   263112.5556    16   263178.0000   263034.0000  2627252    0.05%
 545814 302459        cutoff         263178.0000   263034.0000  2627271    0.05%
 545815 302460   263112.5556    21   263178.0000   263034.0000  2627281    0.05%
 545816 302461   263112.5556    20   263178.0000   263034.0000  2627282    0.05%
 545817 302462   263112.5556    19   263178.0000   263034.0000  2627289    0.05%
 545818 302463   263112.5556    17   263178.0000   263034.0000  2627299    0.05%
 545819 302464   263112.5556    20   263178.0000   263034.0000  2627310    0.05%
Elapsed time = 66.59 sec. (73817.70 ticks, tree = 116.50 MB, solutions = 25)
 565622 314930        cutoff         263178.0000   263034.0000  2777944    0.05%
 565623 314930   263153.0000    12   263178.0000   263034.0000  2777973    0.05%
 565624 314931   263153.0000    10   263178.0000   263034.0000  2777976    0.05%
 565625 314930        cutoff         263178.0000   263034.0000  2777978    0.05%
 565626 314929        cutoff         263178.0000   263034.0000  2777982    0.05%
 565627 314928    infeasible         263178.0000   263034.0000  2777982    0.05%
 565628 314929   263034.0000    20   263178.0000   263034.0000  2778004    0.05%
 565629 314930   263034.0000    19   263178.0000   263034.0000  2778009    0.05%
 565630 314931   263040.5000    21   263178.0000   263034.0000  2778048    0.05%
 565631 314930    infeasible         263178.0000   263034.0000  2778048    0.05%
Elapsed time = 69.87 sec. (77634.89 ticks, tree = 121.02 MB, solutions = 25)
 586952 329720   263034.0000    20   263178.0000   263034.0000  2933608    0.05%
 586953 329721   263034.0000    19   263178.0000   263034.0000  2933614    0.05%
 586954 329722   263034.0000    19   263178.0000   263034.0000  2933617    0.05%
 586955 329723   263034.0000    23   263178.0000   263034.0000  2933620    0.05%
 586956 329724   263034.0000    23   263178.0000   263034.0000  2933621    0.05%
 586957 329725   263122.0000    14   263178.0000   263034.0000  2933630    0.05%
 586958 329726   263122.0000    14   263178.0000   263034.0000  2933631    0.05%
 586959 329727   263122.0000    18   263178.0000   263034.0000  2933633    0.05%
 586960 329728   263122.0000    14   263178.0000   263034.0000  2933634    0.05%
 586961 329729   263122.0000    12   263178.0000   263034.0000  2933636    0.05%
Elapsed time = 73.12 sec. (81450.33 ticks, tree = 128.70 MB, solutions = 25)
 603883 341444   263034.0000    26   263178.0000   263034.0000  3091533    0.05%
 603884 341445   263034.0000    32   263178.0000   263034.0000  3091577    0.05%
 603885 341446   263034.0000    29   263178.0000   263034.0000  3091592    0.05%
 603886 341447   263034.0000    26   263178.0000   263034.0000  3091596    0.05%
 603887 341448   263034.0000    33   263178.0000   263034.0000  3091671    0.05%
 603888 341449   263034.0000    33   263178.0000   263034.0000  3091675    0.05%
 603889 341450   263034.0000    33   263178.0000   263034.0000  3091679    0.05%
 603890 341451   263034.0000    29   263178.0000   263034.0000  3091705    0.05%
 603891 341452   263034.0000    29   263178.0000   263034.0000  3091711    0.05%
 603892 341453   263034.0000    28   263178.0000   263034.0000  3091712    0.05%
Elapsed time = 76.40 sec. (85270.21 ticks, tree = 132.88 MB, solutions = 25)
 617362 351311   263144.8889    17   263178.0000   263034.0000  3261707    0.05%
 617363 351312   263144.8889    15   263178.0000   263034.0000  3261713    0.05%
 617364 351313   263144.8889    24   263178.0000   263034.0000  3261750    0.05%
 617365 351313   263144.8889    25   263178.0000   263034.0000  3261760    0.05%
 617366 351314   263144.8889    25   263178.0000   263034.0000  3261772    0.05%
 617367 351314   263144.8889    23   263178.0000   263034.0000  3261773    0.05%
 617368 351315   263144.8889    24   263178.0000   263034.0000  3261775    0.05%
 617369 351316   263144.8889    24   263178.0000   263034.0000  3261776    0.05%
 617370 351317   263144.8889    25   263178.0000   263034.0000  3261786    0.05%
 617371 351317   263144.8889    23   263178.0000   263034.0000  3261787    0.05%
Elapsed time = 79.58 sec. (89087.63 ticks, tree = 136.34 MB, solutions = 25)
 628101 359593   263122.0000    19   263178.0000   263034.0000  3445103    0.05%
 628102 359594   263122.0000    19   263178.0000   263034.0000  3445104    0.05%
 628103 359595   263122.0000    19   263178.0000   263034.0000  3445106    0.05%
 628104 359596   263122.0000    15   263178.0000   263034.0000  3445108    0.05%
 628105 359597   263122.0000    19   263178.0000   263034.0000  3445110    0.05%
 628106 359596        cutoff         263178.0000   263034.0000  3445121    0.05%
 628107 359597   263122.0000    18   263178.0000   263034.0000  3445123    0.05%
 628108 359598   263122.0000    18   263178.0000   263034.0000  3445127    0.05%
 628109 359599   263122.0000    18   263178.0000   263034.0000  3445130    0.05%
 628110 359600   263122.0000    14   263178.0000   263034.0000  3445132    0.05%
Elapsed time = 82.58 sec. (92903.60 ticks, tree = 139.26 MB, solutions = 25)
 641736 368722   263162.7500    24   263178.0000   263034.0000  3638634    0.05%
 641737 368723   263162.7500    24   263178.0000   263034.0000  3638644    0.05%
 641738 368723   263162.7500    24   263178.0000   263034.0000  3638653    0.05%
 641739 368722        cutoff         263178.0000   263034.0000  3638656    0.05%
 641740 368723   263034.0000    48   263178.0000   263034.0000  3638779    0.05%
 641741 368724   263053.9000    30   263178.0000   263034.0000  3638859    0.05%
 641742 368725   263053.9000    29   263178.0000   263034.0000  3638909    0.05%
 641743 368726   263053.9000    22   263178.0000   263034.0000  3638920    0.05%
 641744 368727   263053.9000    20   263178.0000   263034.0000  3638921    0.05%
 641745 368728   263053.9000    19   263178.0000   263034.0000  3638926    0.05%
Elapsed time = 85.51 sec. (96723.13 ticks, tree = 142.71 MB, solutions = 25)
 651549 374800        cutoff         263178.0000   263034.0000  3851569    0.05%
 651550 374801   263049.1000    27   263178.0000   263034.0000  3851636    0.05%
 651551 374802   263049.1000    28   263178.0000   263034.0000  3851699    0.05%
 651552 374803   263049.1000    28   263178.0000   263034.0000  3851701    0.05%
 651553 374804   263060.8750    24   263178.0000   263034.0000  3851748    0.05%
 651554 374805   263060.8750    25   263178.0000   263034.0000  3851751    0.05%
 651555 374804        cutoff         263178.0000   263034.0000  3851758    0.05%
 651556 374803        cutoff         263178.0000   263034.0000  3851789    0.05%
 651557 374802    infeasible         263178.0000   263034.0000  3851789    0.05%
 651558 374803   263034.0000    44   263178.0000   263034.0000  3851864    0.05%
Elapsed time = 88.53 sec. (100542.52 ticks, tree = 144.98 MB, solutions = 25)
*657089 338023      integral     0   263158.0000   263034.0000  3964323    0.05%
*657602+331196                       263154.0000   263034.0000             0.05%
 658177 331500   263122.0000    18   263154.0000   263034.0000  3982308    0.05%
 658178 331501   263122.0000    17   263154.0000   263034.0000  3982315    0.05%
 658179 331502   263122.0000    14   263154.0000   263034.0000  3982325    0.05%
 658180 331503   263122.0000    12   263154.0000   263034.0000  3982328    0.05%
 658181 331504   263122.0000    15   263154.0000   263034.0000  3982339    0.05%
 658182 331505   263122.0000    17   263154.0000   263034.0000  3982343    0.05%
 658183 331506   263122.0000    13   263154.0000   263034.0000  3982344    0.05%
 658184 331507   263122.0000    16   263154.0000   263034.0000  3982353    0.05%
 658185 331508   263122.0000    21   263154.0000   263034.0000  3982361    0.05%
 658186 331509   263122.0000    25   263154.0000   263034.0000  3982364    0.05%
Elapsed time = 91.76 sec. (104358.62 ticks, tree = 129.32 MB, solutions = 27)
*659302+306826                       263144.0000   263034.0000             0.04%
 666149 311707   263034.0000    40   263144.0000   263034.0000  4111343    0.04%
 666150 311708   263034.0000    40   263144.0000   263034.0000  4111358    0.04%
 666151 311709   263034.0000    36   263144.0000   263034.0000  4111361    0.04%
 666152 311709   263034.0000    27   263144.0000   263034.0000  4111408    0.04%
 666153 311710   263034.0000    27   263144.0000   263034.0000  4111409    0.04%
 666154 311711   263034.0000    25   263144.0000   263034.0000  4111424    0.04%
 666155 311712   263034.0000    27   263144.0000   263034.0000  4111435    0.04%
 666156 311713   263034.0000    28   263144.0000   263034.0000  4111456    0.04%
 666157 311714   263034.0000    36   263144.0000   263034.0000  4111500    0.04%
 666158 311715   263034.0000    33   263144.0000   263034.0000  4111501    0.04%
Elapsed time = 95.08 sec. (108176.33 ticks, tree = 122.17 MB, solutions = 28)
*675902+284852                       263132.0000   263034.0000             0.04%
 677094 285701   263126.1250    21   263132.0000   263034.0000  4293107    0.04%
 677095 285702   263126.1250    21   263132.0000   263034.0000  4293109    0.04%
 677096 285703   263126.1250    21   263132.0000   263034.0000  4293111    0.04%
 677097 285704   263126.1250    20   263132.0000   263034.0000  4293112    0.04%
 677098 285705   263126.1250    22   263132.0000   263034.0000  4293120    0.04%
 677099 285706   263126.1250    19   263132.0000   263034.0000  4293139    0.04%
 677100 285707   263126.1250    26   263132.0000   263034.0000  4293197    0.04%
 677101 285708   263126.1250    23   263132.0000   263034.0000  4293199    0.04%
 677102 285708   263126.1250    20   263132.0000   263034.0000  4293205    0.04%
 677103 285709   263126.1250    14   263132.0000   263034.0000  4293207    0.04%
Elapsed time = 98.40 sec. (111992.83 ticks, tree = 112.69 MB, solutions = 29)

Cover cuts applied:  198
Mixed integer rounding cuts applied:  29
Gomory fractional cuts applied:  1

Root node processing (before b&c):
  Real time             =    0.10 sec. (101.20 ticks)
Sequential b&c:
  Real time             =   99.90 sec. (113670.05 ticks)
                          ------------
Total (root+branch&cut) =  100.00 sec. (113771.25 ticks)

Solution pool: 29 solutions saved.

MIP - Time limit exceeded, integer feasible:  Objective =  2.6313200000e+05
Current MIP best bound =  2.6303400000e+05 (gap = 98, 0.04%)
Solution time =  100.00 sec.  Iterations = 4382957  Nodes = 681456 (288736)
Deterministic time = 113771.26 ticks  (1137.70 ticks/sec)


Incumbent solution written to file '/tmp/tmp_NmFmC.cplex.sol'.
